\Problem name: 

Minimize
OBJROW: -501 CL000001 -501 CL000015 -251 CL000016 -250 CL000021 -501 CL000026 -501 CL000030 -501 CL000050 -500 CL000053 -875 CL000187 -126 CL000197
 -251 CL000465 -250 CL000467 -501 CL000615 -250 CL000693 -501 CL000732 -250 CL000753 -250 CL000820 -751 CL000823 -250 CL000943 -126 CL001282
 -250 CL001683 -250 CL002307 -751 CL002525 -250 CL002610 -251 CL002715 -251 CL002836 -251 CL002908 -501 CL004130 -501 CL005670 -250 CL005674
 -250 CL006183 -501 CL009127 -501 CL010182 -501 CL010742
Subject To
R0000000:  CL000001 + CL000015 <= 1
R0000001:  CL000001 + CL000026 <= 1
R0000002:  CL000001 + CL000030 <= 1
R0000003:  CL000001 + CL000050 <= 1
R0000004:  CL000001 + CL000053 <= 1
R0000005:  CL000001 + CL000187 <= 1
R0000006:  CL000001 + CL000197 <= 1
R0000007:  CL000001 + CL000693 <= 1
R0000008:  CL000001 + CL000732 <= 1
R0000009:  CL000001 + CL000753 <= 1
R0000010:  CL000001 + CL000820 <= 1
R0000011:  CL000001 + CL000823 <= 1
R0000012:  CL000001 + CL000943 <= 1
R0000013:  CL000001 + CL001282 <= 1
R0000014:  CL000001 + CL001683 <= 1
R0000015:  CL000001 + CL002307 <= 1
R0000016:  CL000001 + CL002525 <= 1
R0000017:  CL000001 + CL002610 <= 1
R0000018:  CL000001 + CL002715 <= 1
R0000019:  CL000001 + CL002836 <= 1
R0000020:  CL000001 + CL002908 <= 1
R0000021:  CL000001 + CL004130 <= 1
R0000022:  CL000001 + CL005670 <= 1
R0000023:  CL000001 + CL005674 <= 1
R0000024:  CL000001 + CL006183 <= 1
R0000025:  CL000001 + CL009127 <= 1
R0000026:  CL000001 + CL010742 <= 1
R0000027:  CL000015 + CL000026 <= 1
R0000028:  CL000015 + CL000030 <= 1
R0000029:  CL000015 + CL000050 <= 1
R0000030:  CL000015 + CL000053 <= 1
R0000031:  CL000015 + CL000187 <= 1
R0000032:  CL000015 + CL000197 <= 1
R0000033:  CL000015 + CL000465 <= 1
R0000034:  CL000015 + CL000467 <= 1
R0000035:  CL000015 + CL000615 <= 1
R0000036:  CL000015 + CL000693 <= 1
R0000037:  CL000015 + CL000732 <= 1
R0000038:  CL000015 + CL000753 <= 1
R0000039:  CL000015 + CL000820 <= 1
R0000040:  CL000015 + CL000823 <= 1
R0000041:  CL000015 + CL000943 <= 1
R0000042:  CL000015 + CL001282 <= 1
R0000043:  CL000015 + CL001683 <= 1
R0000044:  CL000015 + CL002307 <= 1
R0000045:  CL000015 + CL002525 <= 1
R0000046:  CL000015 + CL002715 <= 1
R0000047:  CL000015 + CL002836 <= 1
R0000048:  CL000015 + CL002908 <= 1
R0000049:  CL000015 + CL004130 <= 1
R0000050:  CL000015 + CL005674 <= 1
R0000051:  CL000015 + CL006183 <= 1
R0000052:  CL000015 + CL009127 <= 1
R0000053:  CL000015 + CL010182 <= 1
R0000054:  CL000015 + CL010742 <= 1
R0000055:  CL000016 + CL000026 <= 1
R0000056:  CL000016 + CL000030 <= 1
R0000057:  CL000016 + CL000050 <= 1
R0000058:  CL000016 + CL000053 <= 1
R0000059:  CL000016 + CL000187 <= 1
R0000060:  CL000016 + CL000197 <= 1
R0000061:  CL000016 + CL000465 <= 1
R0000062:  CL000016 + CL000467 <= 1
R0000063:  CL000016 + CL000693 <= 1
R0000064:  CL000016 + CL000732 <= 1
R0000065:  CL000016 + CL000753 <= 1
R0000066:  CL000016 + CL000823 <= 1
R0000067:  CL000016 + CL000943 <= 1
R0000068:  CL000016 + CL001282 <= 1
R0000069:  CL000016 + CL001683 <= 1
R0000070:  CL000016 + CL002307 <= 1
R0000071:  CL000016 + CL002525 <= 1
R0000072:  CL000016 + CL002836 <= 1
R0000073:  CL000016 + CL002908 <= 1
R0000074:  CL000016 + CL004130 <= 1
R0000075:  CL000016 + CL005670 <= 1
R0000076:  CL000016 + CL005674 <= 1
R0000077:  CL000016 + CL006183 <= 1
R0000078:  CL000016 + CL009127 <= 1
R0000079:  CL000016 + CL010182 <= 1
R0000080:  CL000016 + CL010742 <= 1
R0000081:  CL000021 + CL000026 <= 1
R0000082:  CL000021 + CL000030 <= 1
R0000083:  CL000021 + CL000050 <= 1
R0000084:  CL000021 + CL000053 <= 1
R0000085:  CL000021 + CL000187 <= 1
R0000086:  CL000021 + CL000197 <= 1
R0000087:  CL000021 + CL000465 <= 1
R0000088:  CL000021 + CL000693 <= 1
R0000089:  CL000021 + CL000753 <= 1
R0000090:  CL000021 + CL000823 <= 1
R0000091:  CL000021 + CL000943 <= 1
R0000092:  CL000021 + CL001282 <= 1
R0000093:  CL000021 + CL001683 <= 1
R0000094:  CL000021 + CL002307 <= 1
R0000095:  CL000021 + CL002525 <= 1
R0000096:  CL000021 + CL002610 <= 1
R0000097:  CL000021 + CL002836 <= 1
R0000098:  CL000021 + CL002908 <= 1
R0000099:  CL000021 + CL004130 <= 1
R0000100:  CL000021 + CL005670 <= 1
R0000101:  CL000021 + CL005674 <= 1
R0000102:  CL000021 + CL006183 <= 1
R0000103:  CL000021 + CL009127 <= 1
R0000104:  CL000021 + CL010182 <= 1
R0000105:  CL000021 + CL010742 <= 1
R0000106:  CL000026 + CL000050 <= 1
R0000107:  CL000026 + CL000053 <= 1
R0000108:  CL000026 + CL000187 <= 1
R0000109:  CL000026 + CL000197 <= 1
R0000110:  CL000026 + CL000465 <= 1
R0000111:  CL000026 + CL000467 <= 1
R0000112:  CL000026 + CL000693 <= 1
R0000113:  CL000026 + CL000732 <= 1
R0000114:  CL000026 + CL000753 <= 1
R0000115:  CL000026 + CL000820 <= 1
R0000116:  CL000026 + CL000823 <= 1
R0000117:  CL000026 + CL000943 <= 1
R0000118:  CL000026 + CL001282 <= 1
R0000119:  CL000026 + CL001683 <= 1
R0000120:  CL000026 + CL002307 <= 1
R0000121:  CL000026 + CL002525 <= 1
R0000122:  CL000026 + CL002610 <= 1
R0000123:  CL000026 + CL002715 <= 1
R0000124:  CL000026 + CL002836 <= 1
R0000125:  CL000026 + CL002908 <= 1
R0000126:  CL000026 + CL004130 <= 1
R0000127:  CL000026 + CL005670 <= 1
R0000128:  CL000026 + CL005674 <= 1
R0000129:  CL000026 + CL006183 <= 1
R0000130:  CL000026 + CL009127 <= 1
R0000131:  CL000026 + CL010182 <= 1
R0000132:  CL000026 + CL010742 <= 1
R0000133:  CL000030 + CL000050 <= 1
R0000134:  CL000030 + CL000053 <= 1
R0000135:  CL000030 + CL000187 <= 1
R0000136:  CL000030 + CL000197 <= 1
R0000137:  CL000030 + CL000465 <= 1
R0000138:  CL000030 + CL000467 <= 1
R0000139:  CL000030 + CL000615 <= 1
R0000140:  CL000030 + CL000732 <= 1
R0000141:  CL000030 + CL000753 <= 1
R0000142:  CL000030 + CL000820 <= 1
R0000143:  CL000030 + CL000823 <= 1
R0000144:  CL000030 + CL001282 <= 1
R0000145:  CL000030 + CL001683 <= 1
R0000146:  CL000030 + CL002307 <= 1
R0000147:  CL000030 + CL002525 <= 1
R0000148:  CL000030 + CL002610 <= 1
R0000149:  CL000030 + CL002715 <= 1
R0000150:  CL000030 + CL002836 <= 1
R0000151:  CL000030 + CL002908 <= 1
R0000152:  CL000030 + CL005670 <= 1
R0000153:  CL000030 + CL005674 <= 1
R0000154:  CL000030 + CL006183 <= 1
R0000155:  CL000030 + CL009127 <= 1
R0000156:  CL000030 + CL010182 <= 1
R0000157:  CL000030 + CL010742 <= 1
R0000158:  CL000050 + CL000187 <= 1
R0000159:  CL000050 + CL000197 <= 1
R0000160:  CL000050 + CL000467 <= 1
R0000161:  CL000050 + CL000615 <= 1
R0000162:  CL000050 + CL000693 <= 1
R0000163:  CL000050 + CL000732 <= 1
R0000164:  CL000050 + CL000753 <= 1
R0000165:  CL000050 + CL000820 <= 1
R0000166:  CL000050 + CL000823 <= 1
R0000167:  CL000050 + CL000943 <= 1
R0000168:  CL000050 + CL001282 <= 1
R0000169:  CL000050 + CL002307 <= 1
R0000170:  CL000050 + CL002525 <= 1
R0000171:  CL000050 + CL002836 <= 1
R0000172:  CL000050 + CL002908 <= 1
R0000173:  CL000050 + CL004130 <= 1
R0000174:  CL000050 + CL005670 <= 1
R0000175:  CL000050 + CL005674 <= 1
R0000176:  CL000050 + CL006183 <= 1
R0000177:  CL000050 + CL009127 <= 1
R0000178:  CL000050 + CL010182 <= 1
R0000179:  CL000050 + CL010742 <= 1
R0000180:  CL000053 + CL000187 <= 1
R0000181:  CL000053 + CL000197 <= 1
R0000182:  CL000053 + CL000465 <= 1
R0000183:  CL000053 + CL000467 <= 1
R0000184:  CL000053 + CL000615 <= 1
R0000185:  CL000053 + CL000732 <= 1
R0000186:  CL000053 + CL000820 <= 1
R0000187:  CL000053 + CL000823 <= 1
R0000188:  CL000053 + CL001282 <= 1
R0000189:  CL000053 + CL001683 <= 1
R0000190:  CL000053 + CL002307 <= 1
R0000191:  CL000053 + CL002525 <= 1
R0000192:  CL000053 + CL002610 <= 1
R0000193:  CL000053 + CL002908 <= 1
R0000194:  CL000053 + CL004130 <= 1
R0000195:  CL000053 + CL005670 <= 1
R0000196:  CL000053 + CL005674 <= 1
R0000197:  CL000053 + CL006183 <= 1
R0000198:  CL000053 + CL009127 <= 1
R0000199:  CL000053 + CL010182 <= 1
R0000200:  CL000053 + CL010742 <= 1
R0000201:  CL000187 + CL000465 <= 1
R0000202:  CL000187 + CL000467 <= 1
R0000203:  CL000187 + CL000615 <= 1
R0000204:  CL000187 + CL000693 <= 1
R0000205:  CL000187 + CL000732 <= 1
R0000206:  CL000187 + CL000753 <= 1
R0000207:  CL000187 + CL000820 <= 1
R0000208:  CL000187 + CL000823 <= 1
R0000209:  CL000187 + CL000943 <= 1
R0000210:  CL000187 + CL001683 <= 1
R0000211:  CL000187 + CL002307 <= 1
R0000212:  CL000187 + CL002525 <= 1
R0000213:  CL000187 + CL002610 <= 1
R0000214:  CL000187 + CL002715 <= 1
R0000215:  CL000187 + CL002836 <= 1
R0000216:  CL000187 + CL002908 <= 1
R0000217:  CL000187 + CL004130 <= 1
R0000218:  CL000187 + CL005670 <= 1
R0000219:  CL000187 + CL005674 <= 1
R0000220:  CL000187 + CL006183 <= 1
R0000221:  CL000187 + CL009127 <= 1
R0000222:  CL000187 + CL010182 <= 1
R0000223:  CL000187 + CL010742 <= 1
R0000224:  CL000197 + CL000465 <= 1
R0000225:  CL000197 + CL000467 <= 1
R0000226:  CL000197 + CL000615 <= 1
R0000227:  CL000197 + CL000693 <= 1
R0000228:  CL000197 + CL000732 <= 1
R0000229:  CL000197 + CL000753 <= 1
R0000230:  CL000197 + CL000820 <= 1
R0000231:  CL000197 + CL000823 <= 1
R0000232:  CL000197 + CL000943 <= 1
R0000233:  CL000197 + CL001683 <= 1
R0000234:  CL000197 + CL002307 <= 1
R0000235:  CL000197 + CL002525 <= 1
R0000236:  CL000197 + CL002610 <= 1
R0000237:  CL000197 + CL002715 <= 1
R0000238:  CL000197 + CL002836 <= 1
R0000239:  CL000197 + CL002908 <= 1
R0000240:  CL000197 + CL004130 <= 1
R0000241:  CL000197 + CL006183 <= 1
R0000242:  CL000197 + CL009127 <= 1
R0000243:  CL000197 + CL010182 <= 1
R0000244:  CL000197 + CL010742 <= 1
R0000245:  CL000465 + CL000615 <= 1
R0000246:  CL000465 + CL000753 <= 1
R0000247:  CL000465 + CL000820 <= 1
R0000248:  CL000465 + CL000823 <= 1
R0000249:  CL000465 + CL001282 <= 1
R0000250:  CL000465 + CL002307 <= 1
R0000251:  CL000465 + CL002525 <= 1
R0000252:  CL000465 + CL002610 <= 1
R0000253:  CL000465 + CL002715 <= 1
R0000254:  CL000465 + CL002836 <= 1
R0000255:  CL000465 + CL002908 <= 1
R0000256:  CL000465 + CL005670 <= 1
R0000257:  CL000465 + CL005674 <= 1
R0000258:  CL000465 + CL006183 <= 1
R0000259:  CL000465 + CL009127 <= 1
R0000260:  CL000465 + CL010182 <= 1
R0000261:  CL000465 + CL010742 <= 1
R0000262:  CL000467 + CL000615 <= 1
R0000263:  CL000467 + CL000693 <= 1
R0000264:  CL000467 + CL000753 <= 1
R0000265:  CL000467 + CL000820 <= 1
R0000266:  CL000467 + CL000823 <= 1
R0000267:  CL000467 + CL000943 <= 1
R0000268:  CL000467 + CL001282 <= 1
R0000269:  CL000467 + CL001683 <= 1
R0000270:  CL000467 + CL002525 <= 1
R0000271:  CL000467 + CL002715 <= 1
R0000272:  CL000467 + CL004130 <= 1
R0000273:  CL000467 + CL005670 <= 1
R0000274:  CL000467 + CL005674 <= 1
R0000275:  CL000467 + CL006183 <= 1
R0000276:  CL000467 + CL009127 <= 1
R0000277:  CL000467 + CL010182 <= 1
R0000278:  CL000467 + CL010742 <= 1
R0000279:  CL000615 + CL000693 <= 1
R0000280:  CL000615 + CL000732 <= 1
R0000281:  CL000615 + CL000753 <= 1
R0000282:  CL000615 + CL000820 <= 1
R0000283:  CL000615 + CL000823 <= 1
R0000284:  CL000615 + CL000943 <= 1
R0000285:  CL000615 + CL001282 <= 1
R0000286:  CL000615 + CL001683 <= 1
R0000287:  CL000615 + CL002525 <= 1
R0000288:  CL000615 + CL002610 <= 1
R0000289:  CL000615 + CL002715 <= 1
R0000290:  CL000615 + CL002908 <= 1
R0000291:  CL000615 + CL004130 <= 1
R0000292:  CL000615 + CL005670 <= 1
R0000293:  CL000615 + CL005674 <= 1
R0000294:  CL000615 + CL006183 <= 1
R0000295:  CL000615 + CL009127 <= 1
R0000296:  CL000615 + CL010182 <= 1
R0000297:  CL000615 + CL010742 <= 1
R0000298:  CL000693 + CL000820 <= 1
R0000299:  CL000693 + CL000823 <= 1
R0000300:  CL000693 + CL001282 <= 1
R0000301:  CL000693 + CL002307 <= 1
R0000302:  CL000693 + CL002525 <= 1
R0000303:  CL000693 + CL002610 <= 1
R0000304:  CL000693 + CL002715 <= 1
R0000305:  CL000693 + CL002836 <= 1
R0000306:  CL000693 + CL002908 <= 1
R0000307:  CL000693 + CL004130 <= 1
R0000308:  CL000693 + CL005670 <= 1
R0000309:  CL000693 + CL005674 <= 1
R0000310:  CL000693 + CL006183 <= 1
R0000311:  CL000693 + CL009127 <= 1
R0000312:  CL000693 + CL010182 <= 1
R0000313:  CL000693 + CL010742 <= 1
R0000314:  CL000732 + CL000820 <= 1
R0000315:  CL000732 + CL000823 <= 1
R0000316:  CL000732 + CL001282 <= 1
R0000317:  CL000732 + CL002525 <= 1
R0000318:  CL000732 + CL002610 <= 1
R0000319:  CL000732 + CL002715 <= 1
R0000320:  CL000732 + CL002836 <= 1
R0000321:  CL000732 + CL002908 <= 1
R0000322:  CL000732 + CL004130 <= 1
R0000323:  CL000732 + CL005670 <= 1
R0000324:  CL000732 + CL005674 <= 1
R0000325:  CL000732 + CL009127 <= 1
R0000326:  CL000732 + CL010182 <= 1
R0000327:  CL000732 + CL010742 <= 1
R0000328:  CL000753 + CL000820 <= 1
R0000329:  CL000753 + CL000823 <= 1
R0000330:  CL000753 + CL001282 <= 1
R0000331:  CL000753 + CL001683 <= 1
R0000332:  CL000753 + CL002307 <= 1
R0000333:  CL000753 + CL002525 <= 1
R0000334:  CL000753 + CL002908 <= 1
R0000335:  CL000753 + CL004130 <= 1
R0000336:  CL000753 + CL005670 <= 1
R0000337:  CL000753 + CL005674 <= 1
R0000338:  CL000753 + CL006183 <= 1
R0000339:  CL000753 + CL009127 <= 1
R0000340:  CL000753 + CL010182 <= 1
R0000341:  CL000820 + CL000943 <= 1
R0000342:  CL000820 + CL001282 <= 1
R0000343:  CL000820 + CL001683 <= 1
R0000344:  CL000820 + CL002307 <= 1
R0000345:  CL000820 + CL002525 <= 1
R0000346:  CL000820 + CL002610 <= 1
R0000347:  CL000820 + CL002836 <= 1
R0000348:  CL000820 + CL002908 <= 1
R0000349:  CL000820 + CL004130 <= 1
R0000350:  CL000820 + CL005670 <= 1
R0000351:  CL000820 + CL005674 <= 1
R0000352:  CL000820 + CL006183 <= 1
R0000353:  CL000820 + CL009127 <= 1
R0000354:  CL000820 + CL010182 <= 1
R0000355:  CL000820 + CL010742 <= 1
R0000356:  CL000823 + CL000943 <= 1
R0000357:  CL000823 + CL001282 <= 1
R0000358:  CL000823 + CL001683 <= 1
R0000359:  CL000823 + CL002307 <= 1
R0000360:  CL000823 + CL002525 <= 1
R0000361:  CL000823 + CL002610 <= 1
R0000362:  CL000823 + CL002715 <= 1
R0000363:  CL000823 + CL002836 <= 1
R0000364:  CL000823 + CL002908 <= 1
R0000365:  CL000823 + CL004130 <= 1
R0000366:  CL000823 + CL005670 <= 1
R0000367:  CL000823 + CL006183 <= 1
R0000368:  CL000823 + CL009127 <= 1
R0000369:  CL000823 + CL010182 <= 1
R0000370:  CL000823 + CL010742 <= 1
R0000371:  CL000943 + CL001282 <= 1
R0000372:  CL000943 + CL002525 <= 1
R0000373:  CL000943 + CL002836 <= 1
R0000374:  CL000943 + CL002908 <= 1
R0000375:  CL000943 + CL004130 <= 1
R0000376:  CL000943 + CL005670 <= 1
R0000377:  CL000943 + CL005674 <= 1
R0000378:  CL000943 + CL009127 <= 1
R0000379:  CL000943 + CL010182 <= 1
R0000380:  CL001282 + CL001683 <= 1
R0000381:  CL001282 + CL002307 <= 1
R0000382:  CL001282 + CL002525 <= 1
R0000383:  CL001282 + CL002610 <= 1
R0000384:  CL001282 + CL002715 <= 1
R0000385:  CL001282 + CL002836 <= 1
R0000386:  CL001282 + CL002908 <= 1
R0000387:  CL001282 + CL004130 <= 1
R0000388:  CL001282 + CL006183 <= 1
R0000389:  CL001282 + CL009127 <= 1
R0000390:  CL001282 + CL010182 <= 1
R0000391:  CL001282 + CL010742 <= 1
R0000392:  CL001683 + CL002307 <= 1
R0000393:  CL001683 + CL002525 <= 1
R0000394:  CL001683 + CL002610 <= 1
R0000395:  CL001683 + CL002715 <= 1
R0000396:  CL001683 + CL002836 <= 1
R0000397:  CL001683 + CL002908 <= 1
R0000398:  CL001683 + CL005670 <= 1
R0000399:  CL001683 + CL005674 <= 1
R0000400:  CL001683 + CL006183 <= 1
R0000401:  CL001683 + CL009127 <= 1
R0000402:  CL001683 + CL010182 <= 1
R0000403:  CL001683 + CL010742 <= 1
R0000404:  CL002307 + CL002610 <= 1
R0000405:  CL002307 + CL002715 <= 1
R0000406:  CL002307 + CL004130 <= 1
R0000407:  CL002307 + CL005670 <= 1
R0000408:  CL002307 + CL005674 <= 1
R0000409:  CL002307 + CL006183 <= 1
R0000410:  CL002307 + CL009127 <= 1
R0000411:  CL002307 + CL010182 <= 1
R0000412:  CL002307 + CL010742 <= 1
R0000413:  CL002525 + CL002610 <= 1
R0000414:  CL002525 + CL002715 <= 1
R0000415:  CL002525 + CL002836 <= 1
R0000416:  CL002525 + CL002908 <= 1
R0000417:  CL002525 + CL004130 <= 1
R0000418:  CL002525 + CL005670 <= 1
R0000419:  CL002525 + CL005674 <= 1
R0000420:  CL002525 + CL006183 <= 1
R0000421:  CL002525 + CL009127 <= 1
R0000422:  CL002525 + CL010182 <= 1
R0000423:  CL002525 + CL010742 <= 1
R0000424:  CL002610 + CL004130 <= 1
R0000425:  CL002610 + CL005670 <= 1
R0000426:  CL002610 + CL005674 <= 1
R0000427:  CL002610 + CL006183 <= 1
R0000428:  CL002610 + CL010182 <= 1
R0000429:  CL002610 + CL010742 <= 1
R0000430:  CL002715 + CL002836 <= 1
R0000431:  CL002715 + CL002908 <= 1
R0000432:  CL002715 + CL004130 <= 1
R0000433:  CL002715 + CL005670 <= 1
R0000434:  CL002715 + CL005674 <= 1
R0000435:  CL002715 + CL006183 <= 1
R0000436:  CL002715 + CL009127 <= 1
R0000437:  CL002715 + CL010182 <= 1
R0000438:  CL002715 + CL010742 <= 1
R0000439:  CL002836 + CL004130 <= 1
R0000440:  CL002836 + CL005670 <= 1
R0000441:  CL002836 + CL005674 <= 1
R0000442:  CL002836 + CL006183 <= 1
R0000443:  CL002836 + CL010182 <= 1
R0000444:  CL002836 + CL010742 <= 1
R0000445:  CL002908 + CL004130 <= 1
R0000446:  CL002908 + CL006183 <= 1
R0000447:  CL002908 + CL009127 <= 1
R0000448:  CL002908 + CL010182 <= 1
R0000449:  CL002908 + CL010742 <= 1
R0000450:  CL004130 + CL005670 <= 1
R0000451:  CL004130 + CL005674 <= 1
R0000452:  CL004130 + CL006183 <= 1
R0000453:  CL004130 + CL009127 <= 1
R0000454:  CL004130 + CL010182 <= 1
R0000455:  CL004130 + CL010742 <= 1
R0000456:  CL005670 + CL006183 <= 1
R0000457:  CL005670 + CL009127 <= 1
R0000458:  CL005670 + CL010182 <= 1
R0000459:  CL005670 + CL010742 <= 1
R0000460:  CL005674 + CL006183 <= 1
R0000461:  CL005674 + CL009127 <= 1
R0000462:  CL005674 + CL010182 <= 1
R0000463:  CL005674 + CL010742 <= 1
R0000464:  CL006183 + CL009127 <= 1
R0000465:  CL006183 + CL010182 <= 1
R0000466:  CL006183 + CL010742 <= 1
R0000467:  CL009127 + CL010182 <= 1
R0000468:  CL009127 + CL010742 <= 1
R0000469:  CL010182 + CL010742 <= 1
Bounds
 0 <= CL000001 <= 1
 0 <= CL000015 <= 1
 0 <= CL000016 <= 1
 0 <= CL000021 <= 1
 0 <= CL000026 <= 1
 0 <= CL000030 <= 1
 0 <= CL000050 <= 1
 0 <= CL000053 <= 1
 0 <= CL000187 <= 1
 0 <= CL000197 <= 1
 0 <= CL000465 <= 1
 0 <= CL000467 <= 1
 0 <= CL000615 <= 1
 0 <= CL000693 <= 1
 0 <= CL000732 <= 1
 0 <= CL000753 <= 1
 0 <= CL000820 <= 1
 0 <= CL000823 <= 1
 0 <= CL000943 <= 1
 0 <= CL001282 <= 1
 0 <= CL001683 <= 1
 0 <= CL002307 <= 1
 0 <= CL002525 <= 1
 0 <= CL002610 <= 1
 0 <= CL002715 <= 1
 0 <= CL002836 <= 1
 0 <= CL002908 <= 1
 0 <= CL004130 <= 1
 0 <= CL005670 <= 1
 0 <= CL005674 <= 1
 0 <= CL006183 <= 1
 0 <= CL009127 <= 1
 0 <= CL010182 <= 1
 0 <= CL010742 <= 1
Integers
CL000001 CL000015 CL000016 CL000021 CL000026 CL000030 CL000050 CL000053 CL000187 CL000197 
CL000465 CL000467 CL000615 CL000693 CL000732 CL000753 CL000820 CL000823 CL000943 CL001282 
CL001683 CL002307 CL002525 CL002610 CL002715 CL002836 CL002908 CL004130 CL005670 CL005674 
CL006183 CL009127 CL010182 CL010742 
End
